100 80 20
71 30
67 11
59 15
30 75
75 66
49 82
35 72
64 91
38 51
71 0
59 74
23 44
19 24
41 47
78 92
30 1
74 49
12 33
64 95
9 91
13 58
74 0
82 90
91 21
41 14
73 0
88 97
96 60
73 90
7 3
34 90
5 8
39 69
42 56
16 51
47 81
61 73
81 96
64 24
17 57
38 90
10 79
39 58
39 12
48 98
16 82
88 73
91 80
94 33
36 11
36 83
92 49
57 74
45 73
98 14
30 89
5 92
20 96
51 59
9 99
9 77
82 50
2 25
30 96
10 66
59 46
49 52
47 58
78 93
83 28
7 66
69 64
58 89
61 9
0 22
61 62
51 95
12 53
20 42
1 30
